Cost: 557
0-8-19-14-11-53-35-7-26-0
0-38-10-31-25-50-18-24-3-0
0-51-16-23-41-42-43-1-33-6-0
0-4-52-34-46-0
0-17-40-32-9-39-12-0
0-30-48-47-36-21-28-22-2-0
0-27-13-15-20-37-5-29-45-0
Cost: 557
0-38-10-31-25-50-18-24-3-0
0-8-19-14-11-53-35-7-26-0
0-4-52-34-46-0
0-45-29-5-37-20-15-13-27-0
0-30-48-47-36-21-28-22-2-0
0-6-33-1-43-42-41-23-16-51-0
0-17-40-32-9-39-12-0
Cost: 557
0-38-10-31-25-50-18-24-3-0
0-45-29-5-37-20-15-13-27-0
0-26-7-35-53-11-14-19-8-0
0-51-16-23-41-42-43-1-33-6-0
0-46-34-52-4-0
0-2-22-28-21-36-47-48-30-0
0-17-40-32-9-39-12-0
Cost: 558
0-38-10-31-25-18-44-3-51-0
0-30-48-47-36-21-28-22-2-0
0-8-19-14-11-53-35-7-26-0
0-46-34-52-4-0
0-45-29-5-37-20-15-13-27-0
0-17-40-32-9-39-12-0
0-6-33-1-43-41-23-24-49-16-0
Cost: 557
0-8-19-14-11-53-35-7-26-0
0-38-10-31-25-50-18-24-3-0
0-33-1-22-42-41-43-23-16-51-0
0-6-2-28-21-36-47-48-30-0
0-46-34-52-4-0
0-12-39-9-32-40-17-0
0-45-29-5-37-20-15-13-27-0
Cost: 557
0-30-48-47-36-21-28-2-6-0
0-8-19-14-11-53-35-7-26-0
0-38-10-31-25-50-18-24-3-0
0-12-39-9-32-40-17-0
0-27-13-15-20-37-5-29-45-0
0-46-34-52-4-0
0-51-16-23-43-41-42-22-1-33-0
Cost: 557
0-38-10-31-25-50-18-24-3-0
0-8-19-14-11-53-35-7-26-0
0-27-13-15-20-37-5-29-45-0
0-51-16-23-41-42-43-1-33-6-0
0-2-22-28-21-36-47-48-30-0
0-17-40-32-9-39-12-0
0-4-52-46-34-0
Cost: 557
0-38-10-31-25-50-18-24-3-0
0-8-19-14-11-53-35-7-26-0
0-27-13-15-20-37-5-29-45-0
0-51-16-23-41-42-43-1-33-6-0
0-2-22-28-21-36-47-48-30-0
0-17-40-32-9-39-12-0
0-4-52-46-34-0
Cost: 557
0-38-10-31-25-50-18-24-3-0
0-8-19-14-11-53-35-7-26-0
0-27-13-15-20-37-5-29-45-0
0-51-16-23-41-42-43-1-33-6-0
0-2-22-28-21-36-47-48-30-0
0-17-40-32-9-39-12-0
0-4-52-46-34-0
Cost: 557
0-38-10-31-25-50-18-24-3-0
0-8-19-14-11-53-35-7-26-0
0-27-13-15-20-37-5-29-45-0
0-51-16-23-41-42-43-1-33-6-0
0-2-22-28-21-36-47-48-30-0
0-17-40-32-9-39-12-0
0-4-52-46-34-0
Cost: 557
0-4-45-29-5-48-30-0
0-35-19-14-11-38-10-31-0
0-12-39-9-32-44-3-17-0
0-21-47-36-37-20-15-13-27-52-0
0-26-7-8-46-34-0
0-2-28-22-42-43-1-33-6-0
0-40-25-50-18-24-49-23-16-51-0
Cost: 557
0-4-45-29-5-48-30-0
0-35-19-14-11-38-10-31-0
0-12-39-9-32-44-3-17-0
0-21-47-36-37-20-15-13-27-52-0
0-26-7-8-46-34-0
0-2-28-22-42-43-1-33-6-0
0-40-25-50-18-24-49-23-16-51-0
Cost: 557
0-4-45-29-5-48-30-0
0-35-19-14-11-38-10-31-0
0-12-39-9-32-44-3-17-0
0-21-47-36-37-20-15-13-27-52-0
0-26-7-8-46-34-0
0-2-28-22-42-43-1-33-6-0
0-40-25-50-18-24-49-23-16-51-0
Cost: 557
0-46-34-52-4-0
0-27-13-15-20-37-5-29-45-0
0-26-7-35-53-11-14-19-8-0
0-30-48-47-36-21-28-22-2-0
0-3-24-18-50-25-31-10-38-0
0-12-39-9-32-40-17-0
0-6-33-1-43-42-41-23-16-51-0
Cost: 557
0-4-45-29-5-48-30-0
0-35-19-14-11-38-10-31-0
0-12-39-9-32-44-3-17-0
0-21-47-36-37-20-15-13-27-52-0
0-26-7-8-46-34-0
0-2-28-22-42-43-1-33-6-0
0-40-25-50-18-24-49-23-16-51-0
Cost: 557
0-4-45-29-5-48-30-0
0-35-19-14-11-38-10-31-0
0-12-39-9-32-44-3-17-0
0-21-47-36-37-20-15-13-27-52-0
0-26-7-8-46-34-0
0-2-28-22-42-43-1-33-6-0
0-40-25-50-18-24-49-23-16-51-0
Cost: 557
0-4-45-29-5-48-30-0
0-35-19-14-11-38-10-31-0
0-12-39-9-32-44-3-17-0
0-21-47-36-37-20-15-13-27-52-0
0-26-7-8-46-34-0
0-2-28-22-42-43-1-33-6-0
0-40-25-50-18-24-49-23-16-51-0
Cost: 557
0-8-19-14-11-53-35-7-26-0
0-27-13-15-20-37-5-29-45-0
0-17-40-32-9-39-12-0
0-4-52-34-46-0
0-6-33-1-43-42-41-23-16-51-0
0-30-48-47-36-21-28-22-2-0
0-3-24-18-50-25-31-10-38-0
Cost: 557
0-51-16-23-41-42-43-1-33-6-0
0-26-7-35-53-11-14-19-8-0
0-45-29-5-37-20-15-13-27-0
0-3-24-18-50-25-31-10-38-0
0-2-22-28-21-36-47-48-30-0
0-17-40-32-9-39-12-0
0-4-52-46-34-0
Cost: 557
0-51-16-23-41-42-43-1-33-6-0
0-26-7-35-53-11-14-19-8-0
0-45-29-5-37-20-15-13-27-0
0-3-24-18-50-25-31-10-38-0
0-2-22-28-21-36-47-48-30-0
0-17-40-32-9-39-12-0
0-4-52-46-34-0
Cost: 557
0-6-2-28-21-36-47-48-30-0
0-33-1-22-42-41-43-23-16-51-0
0-27-13-15-20-37-5-29-45-0
0-3-24-18-50-25-31-10-38-0
0-17-40-32-9-39-12-0
0-4-52-46-34-0
0-8-19-14-11-53-35-7-26-0
Cost: 557
0-6-2-28-21-36-47-48-30-0
0-33-1-22-42-41-43-23-16-51-0
0-27-13-15-20-37-5-29-45-0
0-3-24-18-50-25-31-10-38-0
0-17-40-32-9-39-12-0
0-4-52-46-34-0
0-8-19-14-11-53-35-7-26-0
Cost: 557
0-6-33-1-43-42-22-28-2-0
0-38-10-31-25-9-39-0
0-26-12-40-17-0
0-46-8-19-14-11-53-35-7-0
0-4-45-29-15-13-27-52-34-0
0-21-47-36-20-37-5-48-30-0
0-51-16-23-24-18-50-32-44-3-0
Cost: 557
0-6-2-28-21-36-47-48-30-0
0-33-1-22-42-41-43-23-16-51-0
0-27-13-15-20-37-5-29-45-0
0-3-24-18-50-25-31-10-38-0
0-17-40-32-9-39-12-0
0-4-52-46-34-0
0-8-19-14-11-53-35-7-26-0
Cost: 557
0-8-19-14-11-53-35-7-26-0
0-27-13-15-20-37-5-29-45-0
0-17-40-32-9-39-12-0
0-4-52-34-46-0
0-6-33-1-43-42-41-23-16-51-0
0-30-48-47-36-21-28-22-2-0
0-3-24-18-50-25-31-10-38-0
Cost: 557
0-51-16-49-24-18-25-9-39-0
0-17-3-44-32-40-12-0
0-31-10-38-11-53-14-19-0
0-30-48-5-29-45-4-0
0-34-46-8-35-7-26-0
0-21-47-36-37-20-15-13-27-52-0
0-6-33-23-41-43-1-22-28-2-0
Cost: 557
0-8-19-14-11-53-35-7-26-0
0-12-39-9-32-40-17-0
0-51-16-23-41-42-43-1-33-6-0
0-3-24-18-50-25-31-10-38-0
0-45-29-5-37-20-15-13-27-0
0-4-52-34-46-0
0-30-48-47-36-21-28-22-2-0
Cost: 560
0-10-31-25-18-24-49-3-17-0
0-30-48-47-36-21-28-2-0
0-12-39-9-32-44-40-0
0-34-46-8-52-4-0
0-51-16-23-43-42-22-1-33-6-0
0-45-29-5-37-20-15-13-27-0
0-26-38-11-53-14-19-35-7-0
Cost: 559
0-9-25-50-18-24-49-23-16-51-0
0-40-32-44-3-17-0
0-46-8-19-14-11-53-35-7-0
0-12-39-31-10-38-26-0
0-34-52-27-13-15-20-37-36-21-0
0-30-48-5-29-45-4-0
0-6-33-1-43-42-22-28-2-0
Cost: 557
0-12-39-9-32-40-17-0
0-30-48-47-36-21-28-22-2-0
0-34-46-52-4-0
0-3-24-18-50-25-31-10-38-0
0-6-33-1-43-42-41-23-16-51-0
0-26-7-35-53-11-14-19-8-0
0-45-29-5-37-20-15-13-27-0
Cost: 557
0-17-3-44-32-9-39-12-0
0-26-10-31-38-11-14-19-0
0-2-28-22-42-43-1-33-6-0
0-51-16-23-49-24-18-50-25-40-0
0-4-45-29-5-48-30-0
0-21-47-36-37-20-15-13-27-52-0
0-7-35-8-46-34-0
